300
[61,64,67,70,71,75,77,85,89,92,93,94,95,104,107,108,117,120,124,128,129,130,132,141,145,152,153,156,158,161,166,169,175,176,179,185,192,194,201]
[2,1,1,2,1,1,1,1,2,1,1,1,2,1,3,1,1,1,1,1,1,1,1,1,1,1,2,1,1,1,2,1,1,1,1,2,2,2,1]
